500
1000
380
380
380
379
379
378
377
377
376
376
374
373
372
371
370
368
368
368
367
367
367
367
366
365
363
362
361
361
360
360
359
359
359
358
358
357
357
356
355
354
354
354
353
353
353
351
351
350
348
346
344
343
343
342
341
341
341
341
340
339
339
338
338
338
337
335
334
332
331
331
329
329
325
325
324
320
319
318
318
318
318
318
316
316
315
312
312
311
308
308
307
306
306
305
304
304
304
304
303
302
301
300
300
299
299
298
298
297
297
296
295
294
294
292
292
291
291
291
291
291
290
289
289
287
287
286
286
286
286
284
284
283
282
282
281
280
279
279
278
278
277
274
272
271
271
269
267
267
267
266
265
265
265
265
264
264
262
262
262
261
261
260
260
260
259
259
259
258
257
257
257
256
256
255
255
255
255
254
254
251
251
250
248
248
248
243
240
240
240
239
239
237
235
235
233
233
231
231
230
229
229
228
228
227
225
225
223
223
222
221
219
218
218
218
217
217
215
215
213
213
212
211
211
210
210
208
207
207
206
206
206
205
205
203
201
200
200
200
199
199
198
198
197
197
197
196
196
196
195
195
194
194
193
191
191
191
189
188
188
187
187
186
186
186
185
185
185
185
184
183
181
181
180
180
179
177
177
176
176
175
175
174
172
172
172
171
171
171
171
170
170
169
168
167
167
166
164
163
162
161
159
158
157
157
157
155
154
153
152
152
152
151
151
150
150
148
148
147
147
146
146
144
144
144
144
143
143
143
142
142
141
141
140
140
139
138
137
137
137
136
135
135
135
135
134
133
132
130
130
130
129
129
129
127
125
124
124
124
124
123
123
122
122
122
120
120
119
117
117
116
115
115
114
112
110
109
109
108
107
105
105
105
105
104
103
103
103
102
102
101
101
100
100
100
99
99
98
98
98
97
96
96
93
93
93
92
92
92
90
88
88
87
86
85
85
84
84
83
82
80
80
79
76
75
75
74
74
73
73
72
71
71
70
70
69
68
68
66
65
65
63
63
62
62
62
62
62
60
60
58
58
57
57
56
56
55
53
52
52
51
51
50
49
48
47
47
46
46
44
44
44
42
41
41
41
41
40
39
37
36
36
36
36
36
36
35
35
33
32
31
30
29
29
28
27
26
26
24
23
23
